
Gurobi 12.0.2 (win64) logging started Thu Jun  5 10:48:52 2025

Set parameter LogFile to value "C:\Ioana\_uni\honours\slp\algorithm\Main_files\results\others\prox_tubules\Task_004_Sample004_irr_gurobi.log"
Gurobi Optimizer version 12.0.2 build v12.0.2rc0 (win64 - Windows 11.0 (26100.2))

CPU model: Intel(R) Core(TM) Ultra 5 125H, instruction set [SSE2|AVX|AVX2]
Thread count: 14 physical cores, 18 logical processors, using up to 18 threads

Non-default parameters:
TimeLimit  2200

Optimize a model with 47658 rows, 34811 columns and 147858 nonzeros
Model fingerprint: 0x888b621c
Variable types: 17417 continuous, 17394 integer (17394 binary)
Coefficient statistics:
  Matrix range     [1e-04, 8e+04]
  Objective range  [3e-05, 1e+01]
  Bounds range     [1e+00, 1e+03]
  RHS range        [1e+00, 1e+00]
Presolve removed 31251 rows and 21852 columns
Presolve time: 0.33s
Presolved: 16407 rows, 12959 columns, 54592 nonzeros
Variable types: 6413 continuous, 6546 integer (6546 binary)

Root relaxation: objective 3.312921e-03, 3025 iterations, 0.20 seconds (0.29 work units)

    Nodes    |    Current Node    |     Objective Bounds      |     Work
 Expl Unexpl |  Obj  Depth IntInf | Incumbent    BestBd   Gap | It/Node Time

     0     0    0.00331    0   18          -    0.00331      -     -    0s
H    0     0                       2.3961022    0.00331   100%     -    0s
     0     0    0.89224    0   29    2.39610    0.89224  62.8%     -    1s
     0     0    1.10043    0   17    2.39610    1.10043  54.1%     -    1s
     0     0    1.90393    0   19    2.39610    1.90393  20.5%     -    1s
     0     0    2.36076    0   15    2.39610    2.36076  1.47%     -    1s
     0     0    2.36076    0   11    2.39610    2.36076  1.47%     -    1s
     0     0    2.38694    0    6    2.39610    2.38694  0.38%     -    1s
     0     0    2.39022    0    8    2.39610    2.39022  0.25%     -    1s

Explored 1 nodes (6083 simplex iterations) in 1.74 seconds (1.80 work units)
Thread count was 18 (of 18 available processors)

Solution count 1: 2.3961 

Optimal solution found (tolerance 1.00e-04)
Best objective 2.396102154171e+00, best bound 2.396102154171e+00, gap 0.0000%
